
Log for '/var/folders/wb/6pm8s60x797b47qg789x82sc0000gn/T/7590b0228209481295a2bc63bbf5595f-pulp.lp' Clone_1 (V12.10.0.0) Thu Oct  1 18:17:36 2020


Log for '/var/folders/wb/6pm8s60x797b47qg789x82sc0000gn/T/7590b0228209481295a2bc63bbf5595f-pulp.lp' Clone_1 (V12.10.0.0) Thu Oct  1 18:18:34 2020

Tried aggregator 1 time.
LP Presolve eliminated 6354 rows and 2484 columns.
All rows and columns eliminated.
Presolve time = 0.00 sec. (2.18 ticks)

Log for '/var/folders/wb/6pm8s60x797b47qg789x82sc0000gn/T/7590b0228209481295a2bc63bbf5595f-pulp.lp' Clone_1 (V12.10.0.0) Thu Oct  1 18:18:34 2020

Using steepest-edge.
Parallel mode: deterministic, using up to 2 threads for concurrent optimization:
 * Starting dual Simplex on 1 thread...
 * Starting primal Simplex on 1 thread...

Total time on 2 threads = 0.01 sec. (196.32 ticks)

Dual simplex solved model.


Log for '/var/folders/wb/6pm8s60x797b47qg789x82sc0000gn/T/257144fca1b2455ba0c769c8d800e145-pulp.lp' Clone_1 (V12.10.0.0) Thu Oct  1 18:18:37 2020


Log for '/var/folders/wb/6pm8s60x797b47qg789x82sc0000gn/T/257144fca1b2455ba0c769c8d800e145-pulp.lp' Clone_1 (V12.10.0.0) Thu Oct  1 18:19:35 2020

Tried aggregator 1 time.
LP Presolve eliminated 6354 rows and 2484 columns.
All rows and columns eliminated.
Presolve time = 0.00 sec. (2.19 ticks)
Parallel mode: deterministic, using up to 2 threads for concurrent optimization:
 * Starting dual Simplex on 1 thread...
 * Starting primal Simplex on 1 thread...

Log for '/var/folders/wb/6pm8s60x797b47qg789x82sc0000gn/T/257144fca1b2455ba0c769c8d800e145-pulp.lp' Clone_1 (V12.10.0.0) Thu Oct  1 18:19:35 2020

Using steepest-edge.

Total time on 2 threads = 0.01 sec. (196.32 ticks)

Dual simplex solved model.


Log for '/var/folders/wb/6pm8s60x797b47qg789x82sc0000gn/T/f3a868c572574f4e85f8c65ec8af10ca-pulp.lp' Clone_1 (V12.10.0.0) Thu Oct  1 18:20:36 2020

Tried aggregator 1 time.
LP Presolve eliminated 21666 rows and 8028 columns.
All rows and columns eliminated.
Presolve time = 0.01 sec. (7.43 ticks)

Log for '/var/folders/wb/6pm8s60x797b47qg789x82sc0000gn/T/f3a868c572574f4e85f8c65ec8af10ca-pulp.lp' Clone_1 (V12.10.0.0) Thu Oct  1 18:20:36 2020

Using steepest-edge.
Parallel mode: deterministic, using up to 2 threads for concurrent optimization:
 * Starting dual Simplex on 1 thread...
 * Starting primal Simplex on 1 thread...

Total time on 2 threads = 0.02 sec. (209.76 ticks)

Dual simplex solved model.


Log for '/var/folders/wb/6pm8s60x797b47qg789x82sc0000gn/T/d5ede7c08f5d4a919820d19a50de7faa-pulp.lp' Clone_1 (V12.10.0.0) Thu Oct  1 18:21:37 2020

Tried aggregator 1 time.
LP Presolve eliminated 21666 rows and 8028 columns.
All rows and columns eliminated.
Presolve time = 0.01 sec. (7.44 ticks)
Parallel mode: deterministic, using up to 2 threads for concurrent optimization:
 * Starting dual Simplex on 1 thread...
 * Starting primal Simplex on 1 thread...

Log for '/var/folders/wb/6pm8s60x797b47qg789x82sc0000gn/T/d5ede7c08f5d4a919820d19a50de7faa-pulp.lp' Clone_1 (V12.10.0.0) Thu Oct  1 18:21:37 2020

Using steepest-edge.

Total time on 2 threads = 0.02 sec. (209.77 ticks)

Dual simplex solved model.

